
Gurobi 7.5.1 (win64, Java) logging started 03/06/18 09:35:24

Optimize a model with 3 rows, 3 columns and 6 nonzeros
Coefficient statistics:
  Matrix range     [1e+00, 3e+00]
  Objective range  [7e-02, 1e-01]
  Bounds range     [0e+00, 0e+00]
  RHS range        [2e+03, 1e+04]
Presolve removed 3 rows and 3 columns
Presolve time: 0.01s
Presolve: All rows and columns removed
Iteration    Objective       Primal Inf.    Dual Inf.      Time
       0    9.8000000e+02   0.000000e+00   0.000000e+00      0s

Solved in 0 iterations and 0.02 seconds
Optimal objective  9.800000000e+02

Gurobi 7.5.1 (win64, Java) logging started 03/06/18 09:38:18

Optimize a model with 3 rows, 3 columns and 6 nonzeros
Coefficient statistics:
  Matrix range     [1e+00, 3e+00]
  Objective range  [7e-02, 1e-01]
  Bounds range     [0e+00, 0e+00]
  RHS range        [2e+03, 1e+04]
Presolve removed 3 rows and 3 columns
Presolve time: 0.01s
Presolve: All rows and columns removed
Iteration    Objective       Primal Inf.    Dual Inf.      Time
       0    9.6500000e+02   0.000000e+00   0.000000e+00      0s

Solved in 0 iterations and 0.01 seconds
Optimal objective  9.650000000e+02

Gurobi 7.5.1 (win64, Java) logging started 03/06/18 09:43:18

Optimize a model with 3 rows, 3 columns and 6 nonzeros
Coefficient statistics:
  Matrix range     [1e+00, 3e+00]
  Objective range  [7e-02, 1e-01]
  Bounds range     [0e+00, 0e+00]
  RHS range        [2e+03, 1e+04]
Presolve removed 3 rows and 3 columns
Presolve time: 0.01s
Presolve: All rows and columns removed
Iteration    Objective       Primal Inf.    Dual Inf.      Time
       0    9.6500000e+02   0.000000e+00   0.000000e+00      0s

Solved in 0 iterations and 0.01 seconds
Optimal objective  9.650000000e+02

Gurobi 7.5.1 (win64, Java) logging started 03/06/18 09:43:35

Optimize a model with 3 rows, 3 columns and 6 nonzeros
Coefficient statistics:
  Matrix range     [1e+00, 3e+00]
  Objective range  [7e-02, 1e-01]
  Bounds range     [0e+00, 0e+00]
  RHS range        [2e+03, 1e+04]
Presolve removed 3 rows and 3 columns
Presolve time: 0.01s
Presolve: All rows and columns removed
Iteration    Objective       Primal Inf.    Dual Inf.      Time
       0    9.6500000e+02   0.000000e+00   0.000000e+00      0s

Solved in 0 iterations and 0.01 seconds
Optimal objective  9.650000000e+02

Gurobi 7.5.1 (win64, Java) logging started 03/06/18 09:45:06

Optimize a model with 3 rows, 3 columns and 6 nonzeros
Coefficient statistics:
  Matrix range     [1e+00, 3e+00]
  Objective range  [7e-02, 1e-01]
  Bounds range     [0e+00, 0e+00]
  RHS range        [2e+03, 1e+04]
Presolve removed 3 rows and 3 columns
Presolve time: 0.01s
Presolve: All rows and columns removed
Iteration    Objective       Primal Inf.    Dual Inf.      Time
       0    9.6500000e+02   0.000000e+00   0.000000e+00      0s

Solved in 0 iterations and 0.01 seconds
Optimal objective  9.650000000e+02

Gurobi 7.5.1 (win64, Java) logging started 03/06/18 09:46:45

Optimize a model with 3 rows, 3 columns and 6 nonzeros
Coefficient statistics:
  Matrix range     [1e+00, 3e+00]
  Objective range  [7e-02, 1e-01]
  Bounds range     [0e+00, 0e+00]
  RHS range        [2e+03, 1e+04]
Presolve removed 3 rows and 3 columns
Presolve time: 0.00s
Presolve: All rows and columns removed
Iteration    Objective       Primal Inf.    Dual Inf.      Time
       0    9.6500000e+02   0.000000e+00   0.000000e+00      0s

Solved in 0 iterations and 0.01 seconds
Optimal objective  9.650000000e+02

Gurobi 7.5.1 (win64, Java) logging started 03/06/18 09:47:41

Optimize a model with 3 rows, 3 columns and 6 nonzeros
Coefficient statistics:
  Matrix range     [1e+00, 3e+00]
  Objective range  [7e-02, 1e-01]
  Bounds range     [0e+00, 0e+00]
  RHS range        [2e+03, 1e+04]
Presolve removed 3 rows and 3 columns
Presolve time: 0.01s
Presolve: All rows and columns removed
Iteration    Objective       Primal Inf.    Dual Inf.      Time
       0    9.6500000e+02   0.000000e+00   0.000000e+00      0s

Solved in 0 iterations and 0.01 seconds
Optimal objective  9.650000000e+02

Gurobi 7.5.1 (win64, Java) logging started 03/06/18 09:48:54

Optimize a model with 3 rows, 3 columns and 6 nonzeros
Coefficient statistics:
  Matrix range     [1e+00, 3e+00]
  Objective range  [7e-02, 1e-01]
  Bounds range     [0e+00, 0e+00]
  RHS range        [2e+03, 1e+04]
Presolve removed 3 rows and 3 columns
Presolve time: 0.01s
Presolve: All rows and columns removed
Iteration    Objective       Primal Inf.    Dual Inf.      Time
       0    9.6500000e+02   0.000000e+00   0.000000e+00      0s

Solved in 0 iterations and 0.01 seconds
Optimal objective  9.650000000e+02

Gurobi 7.5.1 (win64, Java) logging started 03/06/18 09:50:15

Optimize a model with 3 rows, 3 columns and 6 nonzeros
Coefficient statistics:
  Matrix range     [1e+00, 3e+00]
  Objective range  [7e-02, 1e-01]
  Bounds range     [0e+00, 0e+00]
  RHS range        [2e+03, 1e+04]
Presolve removed 3 rows and 3 columns
Presolve time: 0.00s
Presolve: All rows and columns removed
Iteration    Objective       Primal Inf.    Dual Inf.      Time
       0    9.6500000e+02   0.000000e+00   0.000000e+00      0s

Solved in 0 iterations and 0.01 seconds
Optimal objective  9.650000000e+02
